# Objective value = 100
c0_0 0
c0_1 0
c0_2 1
c0_3 0
c0_4 0
c0_5 0
c0_6 0
c0_7 0
c0_8 0
c1_0 0
c1_1 0
c1_2 0
c1_3 0
c1_4 0
c1_5 0
c1_6 0
c1_7 1
c1_8 0
c2_0 0
c2_1 0
c2_2 0
c2_3 0
c2_4 0
c2_5 0
c2_6 0
c2_7 0
c2_8 1
c3_0 0
c3_1 0
c3_2 0
c3_3 1
c3_4 0
c3_5 0
c3_6 0
c3_7 0
c3_8 0
c4_0 0
c4_1 0
c4_2 0
c4_3 0
c4_4 1
c4_5 0
c4_6 0
c4_7 0
c4_8 0
c5_0 0
c5_1 0
c5_2 0
c5_3 0
c5_4 0
c5_5 1
c5_6 0
c5_7 0
c5_8 0
c6_0 0
c6_1 0
c6_2 0
c6_3 0
c6_4 0
c6_5 1
c6_6 0
c6_7 0
c6_8 0
c7_0 0
c7_1 0
c7_2 0
c7_3 0
c7_4 0
c7_5 0
c7_6 1
c7_7 0
c7_8 0
c8_0 0
c8_1 0
c8_2 1
c8_3 0
c8_4 0
c8_5 0
c8_6 0
c8_7 0
c8_8 0
c9_0 1
c9_1 0
c9_2 0
c9_3 0
c9_4 0
c9_5 0
c9_6 0
c9_7 0
c9_8 0
c10_0 0
c10_1 1
c10_2 0
c10_3 0
c10_4 0
c10_5 0
c10_6 0
c10_7 0
c10_8 0
